p tdp 16 40
1 2
1 5
1 7
1 13
1 15
2 6
2 9
2 10
2 16
3 4
3 5
3 9
3 10
3 15
4 6
4 7
4 13
4 16
5 8
5 14
5 16
6 8
6 14
6 15
7 8
7 9
7 12
8 10
8 11
9 11
9 14
10 12
10 13
11 13
11 15
11 16
12 14
12 15
12 16
13 14
